c
c start with comments
c
p cnf 27 23
7 -27 0
13 16 4 -7 20 0
4 -25 -1 13 0
-15 16 -3 16 0
21 -14 -7 0
2 11 -6 0
26 -23 0
23 -2 0
-10 5 0
-12 -15 10 -24 0
27 -22 -1 0
-7 14 17 0
-21 -16 8 1 0
17 18 22 8 0
-4 9 0
-8 3 0
2 -22 -11 0
22 24 -7 -16 -7 0
20 8 -16 22 0
8 -1 -7 -19 -1 0
-9 12 10 16 0
15 21 4 22 4 -3 0
-3 -17 -16 12 -9 0